RT is False
Default write of storage_offers_DA.csv just to have a file (but constraint should be inactive)
Reading model...
...model read.
creating competitive generators file...
...competitive generators recorded.
Loading data...
.. day-ahead data with real-time VRE data read.
Compiling instance...
...instance created.
Creating Offer Mitigation (model will solve as dispatch if TRUE)...
NOTE: storage offers will not be mitigated
...storage offer mitigation file created
Converting model to MPEC...
...converted
NOTE: initial MIP solve with only storage competitive to get feasible solution
Solving...

Welcome to IBM(R) ILOG(R) CPLEX(R) Interactive Optimizer 12.9.0.0
  with Simplex, Mixed Integer & Barrier Optimizers
5725-A06 5725-A29 5724-Y48 5724-Y49 5724-Y54 5724-Y55 5655-Y21
Copyright IBM Corp. 1988, 2019.  All Rights Reserved.

Type 'help' for a list of available commands.
Type 'help' followed by a command name for more
information on commands.

CPLEX> Logfile 'cplex.log' closed.
Logfile 'C:\Users\llavin\Desktop\test826\logs\tmp0oam1fq7.cplex.log' open.
CPLEX> New value for parallel optimization mode: -1
CPLEX> New value for emphasis for MIP optimization: 1
CPLEX> New value for mixed integer optimality gap tolerance: 0.01
CPLEX> New value for integrality tolerance: 1e-12
CPLEX> New value for deterministic time limit in ticks: 75000
CPLEX> Problem 'C:\Users\llavin\Desktop\test826\logs\tmpv88fg3_d.pyomo.lp' read.
Read time = 0.22 sec. (13.92 ticks)
CPLEX> Problem name         : C:\Users\llavin\Desktop\test826\logs\tmpv88fg3_d.pyomo.lp
Objective sense      : Maximize
Variables            :   53809  [Nneg: 1,  Box: 22004,  Free: 4464,
                                 Binary: 27340]
Objective nonzeros   :    8984
Linear constraints   :  123253  [Less: 41346,  Greater: 59096,  Equal: 22811]
  Nonzeros           :  293293
  RHS nonzeros       :   67495

Variables            : Min LB: -5000.000        Max UB: 1000000.       
Objective nonzeros   : Min   : 0.04166667       Max   : 834.6000       
Linear constraints   :
  Nonzeros           : Min   : 0.04166667       Max   : 1000000.       
  RHS nonzeros       : Min   : 0.04166667       Max   : 1000000.       
CPLEX> CPXPARAM_Parallel                                -1
CPXPARAM_Emphasis_MIP                            1
CPXPARAM_DetTimeLimit                            75000
CPXPARAM_MIP_Tolerances_MIPGap                   0.01
CPXPARAM_MIP_Tolerances_Integrality              9.9999999999999998e-13
Tried aggregator 4 times.
MIP Presolve eliminated 88649 rows and 18909 columns.
MIP Presolve added 3408 rows and 0 columns.
MIP Presolve modified 24908 coefficients.
Aggregator did 13030 substitutions.
Reduced MIP has 24982 rows, 21318 columns, and 71273 nonzeros.
Reduced MIP has 8422 binaries, 0 generals, 0 SOSs, and 0 indicators.
Presolve time = 0.33 sec. (193.98 ticks)
Probing fixed 386 vars, tightened 3936 bounds.
Probing time = 0.08 sec. (19.27 ticks)
Tried aggregator 2 times.
MIP Presolve eliminated 872 rows and 773 columns.
MIP Presolve modified 3040 coefficients.
Aggregator did 24 substitutions.
Reduced MIP has 24086 rows, 20521 columns, and 68679 nonzeros.
Reduced MIP has 8036 binaries, 0 generals, 0 SOSs, and 0 indicators.
Presolve time = 0.13 sec. (89.57 ticks)
Probing fixed 0 vars, tightened 272 bounds.
Probing time = 0.16 sec. (22.88 ticks)
Clique table members: 44776.
MIP emphasis: integer feasibility.
MIP search method: dynamic search.
Parallel mode: opportunistic, using up to 32 threads.
Root relaxation solution time = 0.36 sec. (563.73 ticks)

        Nodes                                         Cuts/
   Node  Left     Objective  IInf  Best Integer    Best Bound    ItCnt     Gap

      0     0     1058.7021    59                   1058.7021     4729         
*     0+    0                         1058.7021     1058.7021             0.00%
      0     0        cutoff           1058.7021     1058.7021     4729    0.00%
Elapsed time = 1.52 sec. (1185.36 ticks, tree = 0.01 MB, solutions = 1)

Root node processing (before b&c):
  Real time             =    1.53 sec. (1187.31 ticks)
Parallel b&c, 32 threads:
  Real time             =    0.00 sec. (0.00 ticks)
  Sync time (average)   =    0.00 sec.
  Wait time (average)   =    0.00 sec.
                          ------------
Total (root+branch&cut) =    1.53 sec. (1187.31 ticks)

Solution pool: 1 solution saved.

MIP - Integer optimal solution:  Objective =  1.0587021170e+03
Solution time =    1.55 sec.  Iterations = 4729  Nodes = 0
Deterministic time = 1187.46 ticks  (767.59 ticks/sec)

CPLEX> Incumbent solution written to file 'C:\Users\llavin\Desktop\test826\logs\tmpntyu574o.cplex.sol'.
CPLEX> NOTE: no warmstart specified for MIP iteration, default behavior is true
NOTE: resolving with all competitive generators using storage-only solution to warmstart
Solving...

Welcome to IBM(R) ILOG(R) CPLEX(R) Interactive Optimizer 12.9.0.0
  with Simplex, Mixed Integer & Barrier Optimizers
5725-A06 5725-A29 5724-Y48 5724-Y49 5724-Y54 5724-Y55 5655-Y21
Copyright IBM Corp. 1988, 2019.  All Rights Reserved.

Type 'help' for a list of available commands.
Type 'help' followed by a command name for more
information on commands.

CPLEX> Logfile 'cplex.log' closed.
Logfile 'C:\Users\llavin\Desktop\test826\logs\tmph3p34vis.cplex.log' open.
CPLEX> New value for parallel optimization mode: -1
CPLEX> New value for emphasis for MIP optimization: 1
CPLEX> New value for mixed integer optimality gap tolerance: 0.01
CPLEX> New value for integrality tolerance: 1e-12
CPLEX> New value for deterministic time limit in ticks: 75000
CPLEX> Problem 'C:\Users\llavin\Desktop\test826\logs\tmp4nebiyuv.pyomo.lp' read.
Read time = 0.24 sec. (13.94 ticks)
CPLEX> MIP start file 'C:\Users\llavin\Desktop\test826\logs\tmpujl6fhr4.cplex.mst' read.
CPLEX> Problem name         : C:\Users\llavin\Desktop\test826\logs\tmp4nebiyuv.pyomo.lp
Objective sense      : Maximize
Variables            :   54529  [Nneg: 1,  Box: 22724,  Free: 4464,
                                 Binary: 27340]
Objective nonzeros   :    9680
Linear constraints   :  123253  [Less: 41346,  Greater: 59096,  Equal: 22811]
  Nonzeros           :  293293
  RHS nonzeros       :   67495

Variables            : Min LB: -5000.000        Max UB: 1000000.       
Objective nonzeros   : Min   : 0.04166667       Max   : 786.2917       
Linear constraints   :
  Nonzeros           : Min   : 0.04166667       Max   : 1000000.       
  RHS nonzeros       : Min   : 0.04166667       Max   : 1000000.       
CPLEX> CPXPARAM_Parallel                                -1
CPXPARAM_Emphasis_MIP                            1
CPXPARAM_DetTimeLimit                            75000
CPXPARAM_MIP_Tolerances_MIPGap                   0.01
CPXPARAM_MIP_Tolerances_Integrality              9.9999999999999998e-13
Warning:  No solution found from 1 MIP starts.
Retaining values of one MIP start for possible repair.
Tried aggregator 4 times.
MIP Presolve eliminated 88649 rows and 19629 columns.
MIP Presolve added 3408 rows and 0 columns.
MIP Presolve modified 24908 coefficients.
Aggregator did 13030 substitutions.
Reduced MIP has 24982 rows, 21318 columns, and 71273 nonzeros.
Reduced MIP has 8422 binaries, 0 generals, 0 SOSs, and 0 indicators.
Presolve time = 0.33 sec. (194.39 ticks)
Probing fixed 386 vars, tightened 3936 bounds.
Probing time = 0.06 sec. (19.27 ticks)
Tried aggregator 2 times.
MIP Presolve eliminated 872 rows and 773 columns.
MIP Presolve modified 3040 coefficients.
Aggregator did 24 substitutions.
Reduced MIP has 24086 rows, 20521 columns, and 68679 nonzeros.
Reduced MIP has 8036 binaries, 0 generals, 0 SOSs, and 0 indicators.
Presolve time = 0.11 sec. (89.58 ticks)
Probing fixed 0 vars, tightened 272 bounds.
Probing time = 0.16 sec. (22.88 ticks)
Clique table members: 44776.
MIP emphasis: integer feasibility.
MIP search method: dynamic search.
Parallel mode: opportunistic, using up to 32 threads.
Root relaxation solution time = 0.44 sec. (624.95 ticks)

        Nodes                                         Cuts/
   Node  Left     Objective  IInf  Best Integer    Best Bound    ItCnt     Gap

      0     0    99527.5493   245                  99527.5493     5509         
      0     0    91080.0928   166                   Cuts: 124     5736         
      0     0    90943.3688   166                    Cuts: 15     5752         
Repair heuristic found nothing.
      0    45    63573.2285   143                    Cuts: 12     6186         
Elapsed time = 4.47 sec. (1902.30 ticks, tree = 0.06 MB, solutions = 0)
    788   575    43948.7389    75                  71624.2848     9753         
   1318   876    -3717.3852    27                  71624.2848    15709         
*  1320+  848                          446.3875    71624.2848              --- 
   2275   694        cutoff           1058.7021    63162.6722    27695     --- 

Clique cuts applied:  1
Cover cuts applied:  8
Implied bound cuts applied:  1
Flow cuts applied:  116
Mixed integer rounding cuts applied:  4

Root node processing (before b&c):
  Real time             =    2.91 sec. (1877.77 ticks)
Parallel b&c, 32 threads:
  Real time             =    5.63 sec. (948.61 ticks)
  Sync time (average)   =    1.65 sec.
  Wait time (average)   =    0.00 sec.
                          ------------
Total (root+branch&cut) =    8.53 sec. (2826.38 ticks)

Solution pool: 11 solutions saved.

MIP - Integer optimal solution:  Objective =  1.0587021174e+03
Solution time =    8.55 sec.  Iterations = 40928  Nodes = 2647
Deterministic time = 2826.53 ticks  (330.70 ticks/sec)

CPLEX> Incumbent solution written to file 'C:\Users\llavin\Desktop\test826\logs\tmpxu0ramsa.cplex.sol'.
CPLEX> Exporting results... 
